32      4       
10      10      10      10      
0       0       0       0       0       14      2       4       5       6       7       8       9       10      11      13      14      15      30      31      
1       1       1       0       1       5       3       19      20      24      25      
8       6       0       1       5       6       16      17      18      21      22      26      
9       0       7       4       5       4       17      18      20      29      
5       3       0       5       2       4       16      17      25      28      
2       5       4       0       5       3       18      19      23      
5       0       3       6       6       2       12      16      
10      3       0       1       4       2       22      24      
8       0       5       4       8       2       16      20      
6       0       2       3       5       2       18      27      
7       0       6       3       4       2       19      21      
3       0       4       3       3       1       17      
2       5       0       6       4       1       23      
8       0       5       5       1       1       16      
8       5       1       3       0       1       16      
2       6       3       5       0       1       32      
10      0       5       3       3       1       32      
5       3       0       4       2       1       32      
1       3       5       2       0       1       32      
10      3       5       7       0       1       32      
8       3       0       4       4       1       32      
2       5       0       6       3       1       32      
10      3       0       4       3       1       32      
5       5       5       6       0       1       32      
5       0       3       6       9       1       32      
8       4       0       3       2       1       32      
9       1       5       0       4       1       32      
9       0       6       3       4       1       32      
10      3       0       4       6       1       32      
4       7       0       3       3       1       32      
2       6       1       4       0       1       32      
0       0       0       0       0       0       
